Academic license - for non-commercial use only
Gurobi Optimizer version 9.0.3 build v9.0.3rc0 (mac64)
Optimize a model with 207966 rows, 200800 columns and 1151950 nonzeros
Model fingerprint: 0xd6018757
Variable types: 0 continuous, 200800 integer (200800 binary)
Coefficient statistics:
  Matrix range     [1e+00, 1e+00]
  Objective range  [1e+01, 5e+04]
  Bounds range     [1e+00, 1e+00]
  RHS range        [1e+00, 5e+02]
Presolve added 0 rows and 2950 columns
Presolve removed 50 rows and 0 columns
Presolve time: 3.76s
Presolved: 207916 rows, 203750 columns, 860850 nonzeros
Variable types: 0 continuous, 203750 integer (203750 binary)
Found heuristic solution: objective 352109.00000

Concurrent LP optimizer: dual simplex and barrier
Showing barrier log only...

Root barrier log...

Ordering time: 0.06s

Barrier statistics:
 Dense cols : 400
 AA' NZ     : 6.668e+05
 Factor NZ  : 2.815e+06 (roughly 200 MBytes of memory)
 Factor Ops : 6.809e+08 (less than 1 second per iteration)
 Threads    : 3

                  Objective                Residual
Iter       Primal          Dual         Primal    Dual     Compl     Time
   0   1.97076460e+08 -2.84632490e+08  4.35e+02 2.93e+01  1.50e+04     7s
   1   1.17641803e+06 -2.67462834e+08  7.90e+00 9.89e+03  5.47e+02     7s
   2   5.03339905e+05 -1.56812096e+07  1.26e+00 7.22e+02  3.41e+01     7s
   3   3.80314247e+05 -9.86447761e+05  7.94e-02 3.98e+01  2.29e+00     8s
   4   3.57193214e+05  3.33227219e+04  3.39e-02 6.88e+00  5.30e-01     8s
   5   3.41249095e+05  1.89167755e+05  2.58e-02 2.01e+00  2.47e-01     8s
   6   3.31259677e+05  2.22581730e+05  2.20e-02 1.20e+00  1.75e-01     8s
   7   3.23609733e+05  2.40786273e+05  1.88e-02 7.22e-01  1.33e-01     9s
   8   3.19090411e+05  2.47751250e+05  1.72e-02 5.28e-01  1.15e-01     9s
   9   3.08795460e+05  2.53709246e+05  1.39e-02 3.66e-01  8.84e-02     9s
  10   3.07620337e+05  2.55915416e+05  1.35e-02 3.15e-01  8.29e-02     9s
  11   2.99853462e+05  2.59435493e+05  1.10e-02 2.19e-01  6.48e-02    10s
  12   2.96137046e+05  2.61008490e+05  9.85e-03 1.75e-01  5.62e-02    10s
  13   2.91538638e+05  2.62284239e+05  8.38e-03 1.39e-01  4.68e-02    10s
  14   2.88177886e+05  2.63317739e+05  7.28e-03 1.11e-01  3.97e-02    11s
  15   2.84822071e+05  2.64512604e+05  6.28e-03 7.95e-02  3.24e-02    11s
  16   2.80311926e+05  2.65262674e+05  4.80e-03 6.06e-02  2.40e-02    11s
  17   2.77836016e+05  2.65934595e+05  3.94e-03 4.39e-02  1.90e-02    11s
  18   2.76511448e+05  2.66326145e+05  3.43e-03 3.53e-02  1.62e-02    12s
  19   2.75583207e+05  2.66634471e+05  3.09e-03 2.78e-02  1.42e-02    12s
  20   2.73864870e+05  2.66884106e+05  2.46e-03 2.13e-02  1.11e-02    12s
  21   2.72900271e+05  2.67014531e+05  2.09e-03 1.81e-02  9.36e-03    12s
  22   2.72078518e+05  2.67169693e+05  1.79e-03 1.45e-02  7.80e-03    13s
  23   2.71318250e+05  2.67277568e+05  1.48e-03 1.19e-02  6.42e-03    13s
  24   2.70742571e+05  2.67357111e+05  1.24e-03 1.02e-02  5.38e-03    13s
  25   2.70493173e+05  2.67429934e+05  1.14e-03 8.51e-03  4.86e-03    13s
  26   2.69850457e+05  2.67490608e+05  8.81e-04 7.11e-03  3.75e-03    14s
  27   2.69577769e+05  2.67548766e+05  7.68e-04 5.85e-03  3.22e-03    14s
  28   2.69242703e+05  2.67593983e+05  6.25e-04 4.89e-03  2.62e-03    14s
  29   2.69115182e+05  2.67623905e+05  5.69e-04 4.25e-03  2.37e-03    14s
  30   2.68946703e+05  2.67658378e+05  4.98e-04 3.61e-03  2.04e-03    15s
  31   2.68718314e+05  2.67677872e+05  4.01e-04 3.19e-03  1.65e-03    15s
  32   2.68633167e+05  2.67715611e+05  3.67e-04 2.48e-03  1.45e-03    15s
  33   2.68557267e+05  2.67731589e+05  3.35e-04 2.13e-03  1.31e-03    15s
  34   2.68397781e+05  2.67743097e+05  2.63e-04 1.88e-03  1.04e-03    16s
  35   2.68379833e+05  2.67750671e+05  2.57e-04 1.78e-03  9.96e-04    16s
  36   2.68294832e+05  2.67764648e+05  2.16e-04 1.47e-03  8.40e-04    16s
  37   2.68210751e+05  2.67778156e+05  1.80e-04 1.19e-03  6.85e-04    16s
  38   2.68159908e+05  2.67781947e+05  1.56e-04 1.09e-03  5.98e-04    17s
  39   2.68112884e+05  2.67792725e+05  1.33e-04 8.69e-04  5.07e-04    17s
  40   2.68086550e+05  2.67796613e+05  1.21e-04 7.85e-04  4.59e-04    17s
  41   2.68034917e+05  2.67803394e+05  9.76e-05 6.34e-04  3.66e-04    17s
  42   2.68008251e+05  2.67812986e+05  8.51e-05 4.59e-04  3.09e-04    17s
  43   2.67988802e+05  2.67815692e+05  7.63e-05 3.99e-04  2.73e-04    18s
  44   2.67973888e+05  2.67819362e+05  6.95e-05 3.31e-04  2.44e-04    18s
  45   2.67962419e+05  2.67821327e+05  6.42e-05 2.98e-04  2.23e-04    18s
  46   2.67943804e+05  2.67823902e+05  5.51e-05 2.48e-04  1.89e-04    18s
  47   2.67922389e+05  2.67825068e+05  4.49e-05 2.28e-04  1.54e-04    19s
  48   2.67917507e+05  2.67827510e+05  4.26e-05 1.84e-04  1.42e-04    19s
  49   2.67905800e+05  2.67829400e+05  3.67e-05 1.52e-04  1.20e-04    19s
  50   2.67893450e+05  2.67830322e+05  3.05e-05 1.37e-04  9.94e-05    19s
  51   2.67882361e+05  2.67831016e+05  2.46e-05 1.24e-04  8.09e-05    20s
  52   2.67879193e+05  2.67832220e+05  2.29e-05 1.04e-04  7.39e-05    20s
  53   2.67872589e+05  2.67833045e+05  1.95e-05 8.84e-05  6.22e-05    20s
  54   2.67869062e+05  2.67834038e+05  1.77e-05 6.91e-05  5.51e-05    20s
  55   2.67867012e+05  2.67834751e+05  1.66e-05 5.52e-05  5.07e-05    20s
  56   2.67857064e+05  2.67835090e+05  1.12e-05 4.97e-05  3.45e-05    21s
  57   2.67852867e+05  2.67835860e+05  8.83e-06 3.59e-05  2.67e-05    21s
  58   2.67850444e+05  2.67836025e+05  7.50e-06 3.30e-05  2.26e-05    21s
  59   2.67847102e+05  2.67836684e+05  5.46e-06 2.15e-05  1.64e-05    21s
  60   2.67846291e+05  2.67836799e+05  4.99e-06 1.95e-05  1.49e-05    22s
  61   2.67845148e+05  2.67836977e+05  4.34e-06 1.64e-05  1.28e-05    22s
  62   2.67844391e+05  2.67837145e+05  3.89e-06 1.39e-05  1.14e-05    22s
  63   2.67843922e+05  2.67837224e+05  3.60e-06 1.27e-05  1.05e-05    22s
  64   2.67842806e+05  2.67837428e+05  2.90e-06 9.29e-06  8.43e-06    23s
  65   2.67842090e+05  2.67837525e+05  2.48e-06 7.71e-06  7.15e-06    23s
  66   2.67841068e+05  2.67837782e+05  1.84e-06 3.78e-06  5.14e-06    23s
  67   2.67840523e+05  2.67837826e+05  1.50e-06 3.08e-06  4.22e-06    23s
  68   2.67840318e+05  2.67837846e+05  1.39e-06 2.78e-06  3.87e-06    24s
  69   2.67839554e+05  2.67837969e+05  9.17e-07 8.72e-07  2.48e-06    24s
  70   2.67839065e+05  2.67837987e+05  6.42e-07 6.50e-07  1.68e-06    24s
  71   2.67838635e+05  2.67838001e+05  3.63e-07 4.59e-07  9.91e-07    24s
  72   2.67838566e+05  2.67838013e+05  3.19e-07 3.33e-07  8.65e-07    24s
  73   2.67838322e+05  2.67838029e+05  1.67e-07 2.40e-07  4.57e-07    25s
  74   2.67838204e+05  2.67838037e+05  9.22e-08 1.62e-07  2.61e-07    25s
  75   2.67838190e+05  2.67838047e+05  8.36e-08 5.00e-07  2.23e-07    25s
  76   2.67838130e+05  2.67838050e+05  4.64e-08 2.39e-07  1.25e-07    25s
  77   2.67838101e+05  2.67838052e+05  2.89e-08 1.27e-07  7.73e-08    25s
  78   2.67838094e+05  2.67838052e+05  2.45e-08 9.09e-08  6.53e-08    25s
  79   2.67838093e+05  2.67838052e+05  2.37e-08 8.59e-08  6.32e-08    26s
  80   2.67838093e+05  2.67838052e+05  2.36e-08 8.51e-08  6.29e-08    26s
  81   2.67838092e+05  2.67838052e+05  2.35e-08 8.50e-08  6.28e-08    26s
  82   2.67838092e+05  2.67838052e+05  2.34e-08 3.52e-08  6.25e-08    26s
  83   2.67838092e+05  2.67838052e+05  2.34e-08 3.46e-08  6.24e-08    27s
  84   2.67838092e+05  2.67838052e+05  2.33e-08 3.48e-08  6.21e-08    27s
  85   2.67838092e+05  2.67838052e+05  2.32e-08 3.45e-08  6.19e-08    27s
  86   2.67838092e+05  2.67838052e+05  2.88e-08 3.49e-08  6.19e-08    27s
  87   2.67838092e+05  2.67838052e+05  2.87e-08 3.45e-08  6.17e-08    28s
  88   2.67838090e+05  2.67838052e+05  2.72e-08 3.81e-08  5.85e-08    28s
  89   2.67838090e+05  2.67838052e+05  2.72e-08 3.80e-08  5.84e-08    28s
  90   2.67838089e+05  2.67838052e+05  2.70e-08 3.78e-08  5.80e-08    29s
  91   2.67838089e+05  2.67838052e+05  2.70e-08 3.78e-08  5.80e-08    29s
  92   2.67838089e+05  2.67838052e+05  2.67e-08 3.85e-08  5.73e-08    29s
  93   2.67838089e+05  2.67838052e+05  2.66e-08 3.82e-08  5.71e-08    29s
  94   2.67838089e+05  2.67838052e+05  2.66e-08 3.82e-08  5.71e-08    30s
  95   2.67838088e+05  2.67838052e+05  2.56e-08 3.77e-08  5.51e-08    30s
  96   2.67838088e+05  2.67838052e+05  2.56e-08 3.78e-08  5.50e-08    30s
  97   2.67838088e+05  2.67838052e+05  2.56e-08 3.77e-08  5.50e-08    30s
  98   2.67838088e+05  2.67838052e+05  2.56e-08 3.79e-08  5.49e-08    31s
  99   2.67838088e+05  2.67838052e+05  2.56e-08 3.79e-08  5.49e-08    31s
 100   2.67838088e+05  2.67838052e+05  2.56e-08 3.78e-08  5.49e-08    31s

Barrier performed 100 iterations in 31.25 seconds
Sub-optimal termination - objective 2.67838088e+05


Root crossover log...

  107044 DPushes remaining with DInf 0.0000000e+00                31s
    1259 DPushes remaining with DInf 0.0000000e+00                35s
       0 DPushes remaining with DInf 0.0000000e+00                37s

    1147 PPushes remaining with PInf 5.2114507e-05                37s
       0 PPushes remaining with PInf 0.0000000e+00                37s

  Push phase complete: Pinf 0.0000000e+00, Dinf 1.1179520e-09     37s


Root simplex log...

Iteration    Objective       Primal Inf.    Dual Inf.      Time
   21996    2.6783805e+05   0.000000e+00   0.000000e+00     37s

Solved with barrier

Root relaxation: objective 2.678381e+05, 21996 iterations, 30.78 seconds

    Nodes    |    Current Node    |     Objective Bounds      |     Work
 Expl Unexpl |  Obj  Depth IntInf | Incumbent    BestBd   Gap | It/Node Time

     0     0 267838.053    0 19182 352109.000 267838.053  23.9%     -   39s
H    0     0                    287474.00000 267838.053  6.83%     -   62s
H    0     0                    287398.00000 267838.053  6.81%     -   92s
     0     0 267838.053    0 19182 287398.000 267838.053  6.81%     -  145s
H    0     0                    287397.00000 267838.053  6.81%     -  163s
     0     2 267838.053    0 19182 287397.000 267838.053  6.81%     -  182s

Explored 1 nodes (28673 simplex iterations) in 300.09 seconds
Thread count was 8 (of 8 available processors)

Solution count 4: 287397 287398 287474 352109 

Time limit reached
Best objective 2.873970000000e+05, best bound 2.678380902876e+05, gap 6.8055%

User-callback calls 20170, time in user-callback 0.16 sec
Solution written to /Users/mdeboute/Desktop/Etudes/Master/M2/S9/GOPP/Projet/multi-period-flp/solution/instSingle_I50_J500_T8_0_result.txt
